1 2
2 2
3 15
4 1
5 4
6 1
7 2
8 18
9 21
10 18
11 5
12 1
13 3
14 2
15 2
16 1
17 2
18 5
19 15
20 9
21 11
22 1
23 3
24 4
25 8
26 21
27 21
28 4
29 11
30 2
31 20
32 10
33 1
34 21
35 17
36 4
37 3
38 2
39 5
40 2
41 14
42 12
43 14
44 18
45 20
46 18
47 17
48 9
49 1
50 1
51 5
52 20
53 7
54 3
55 18
56 21
57 12
58 6
59 2
60 1
61 2
62 3
63 4
64 1
65 2
66 1
67 17
68 8
69 6
70 2
71 5
72 17
73 1
74 4
75 2
76 1
77 17
78 1
79 4
80 4
81 2
82 3
83 2
84 3
85 15
86 3
87 14
88 20
89 3
90 20
91 14
92 21
93 4
94 6
95 1
96 5
97 1
98 3
99 14
100 12
101 7
102 10
103 21
104 5
105 2
106 3
107 8
108 6
109 1
110 1
111 1
112 1
113 6
114 4
115 5
116 5
117 9
118 2
119 1
120 18
121 19
122 1
123 3
124 8
125 10
126 2
127 12
128 21
129 1
130 2
131 3
132 1
133 3
134 4
135 3
136 2
137 8
138 1
139 2
140 15
141 4
142 16
143 18
144 20
145 21
146 8
147 2
148 1
149 19
150 21
151 3
152 17
153 6
154 3
155 1
156 18
157 6
158 5
159 4
160 2
161 1
162 3
163 4
164 6
165 6
166 11
167 18
168 9
169 1
170 7
171 18
172 17
173 11
174 1
175 17
176 19
177 14
178 1
179 17
180 3
181 9
182 18
183 12
184 19
185 1
186 2
187 10
188 20
189 7
190 3
191 13
192 1
193 12
194 21
195 4
196 2
197 4
198 1
199 1
200 5
201 8
202 5
203 3
204 1
205 1
206 2
207 5
208 7
209 2
210 10
211 10
212 10
213 1
214 14
215 3
216 1
217 15
218 20
219 4
220 6
221 7
222 3
223 17
224 2
225 18
226 5
227 4
228 3
229 1
230 10
231 2
232 2
233 1
234 2
235 3
236 1
237 2
238 17
239 7
240 15
241 2
242 1
243 1
244 1
245 9
246 8
247 12
248 17
249 17
250 13
251 12
252 13
253 12
254 13
255 4
256 12
257 15
258 4
259 14
260 9
261 2
262 18
263 19
264 15
265 11
266 18
267 9
268 14
269 15
270 14
271 11
272 2
273 12
274 17
275 1
276 1
277 3
278 18
279 14
280 1
281 5
282 1
283 3
284 2
285 1
286 15
287 15
288 18
289 21
290 21
291 1
292 21
293 20
294 6
295 6
296 20
297 2
298 20
299 16
300 17
301 18
302 10
303 7
304 8
305 16
306 17
307 1
308 8
309 2
310 3
311 8
312 2
313 2
314 1
315 9
316 3
317 2
318 6
319 6
320 18
321 18
322 2
323 1
324 4
325 19
326 19
327 15
328 18
329 1
330 1
331 5
332 8
333 1
334 6
335 14
336 15
337 7
338 21
339 14
340 2
341 11
342 10
343 21
344 20
345 2
346 6
347 3
348 8
349 14
350 4
351 2
352 9
353 21
354 5
355 1
356 7
357 10
358 5
359 13
360 2
361 9
362 21
363 1
364 4
365 14
366 19
367 15
368 19
369 1
370 15
371 6
372 5
373 5
374 2
375 7
376 5
377 6
378 6
379 4
380 7
381 1
382 16
383 20
384 17
385 17
386 17
387 1
388 1
389 6
390 21
391 21
392 20
393 8
394 7
395 7
396 8
397 16
398 7
399 8
400 14
401 2
402 11
403 6
404 5
405 10
406 15
407 6
408 6
409 3
410 2
411 1
412 1
413 15
414 15
415 15
416 18
417 14
418 1
419 15
420 2
421 3
422 18
423 15
424 3
425 3
426 1
427 5
428 4
429 2
430 18
431 3
432 15
433 21
434 6
435 16
436 1
437 8
438 15
439 15
440 21
441 3
442 21
443 1
444 16
445 5
446 1
447 3
448 7
449 2
450 2
451 12
452 18
453 10
454 1
455 2
456 5
457 5
458 4
459 3
460 1
461 5
